************************************************************************
file with basedata            : cm424_.bas
initial value random generator: 2076925901
************************************************************************
projects                      :  1
jobs (incl. supersource/sink ):  18
horizon                       :  147
RESOURCES
  - renewable                 :  2   R
  - nonrenewable              :  2   N
  - doubly constrained        :  0   D
************************************************************************
PROJECT INFORMATION:
pronr.  #jobs rel.date duedate tardcost  MPM-Time
    1     16      0       23        9       23
************************************************************************
PRECEDENCE RELATIONS:
jobnr.    #modes  #successors   successors
   1        1          3           2   3   4
   2        4          2          10  17
   3        4          3           6   8  12
   4        4          3           5   7  15
   5        4          3           9  10  13
   6        4          3           9  11  13
   7        4          2           9  10
   8        4          3          13  15  16
   9        4          2          16  17
  10        4          1          12
  11        4          2          14  15
  12        4          1          14
  13        4          1          17
  14        4          1          16
  15        4          1          18
  16        4          1          18
  17        4          1          18
  18        1          0        
************************************************************************
REQUESTS/DURATIONS:
jobnr. mode duration  R 1  R 2  N 1  N 2
------------------------------------------------------------------------
  1      1     0       0    0    0    0
  2      1     1       7    3    0    6
         2     8       6    3    2    0
         3     8       5    3    0    1
         4     9       4    2    2    0
  3      1     2       3    9    7    0
         2     4       3    6    5    0
         3     6       3    3    0    5
         4     9       3    1    0    5
  4      1     4       3    3    0    9
         2     4       2    4    2    0
         3     7       2    2    1    0
         4    10       2    2    0    9
  5      1     2       9    8    7    0
         2     2       8    7    0   10
         3     5       7    5    0   10
         4     7       6    2    0    9
  6      1     1       2    9    9    0
         2     1       2   10    7    0
         3     2       2    9    5    0
         4    10       1    8    4    0
  7      1     4       9    4    8    0
         2     4       9    5    7    0
         3     9       7    3    0    4
         4     9       8    2    0    6
  8      1     1       5   10    0    5
         2     1       6   10    4    0
         3     9       4    7    4    0
         4     9       5    6    0    5
  9      1     4       8    7    0    8
         2     9       4    5    3    0
         3    10       1    5    1    0
         4    10       2    5    0    6
 10      1     2       1    9    6    0
         2     2       1    9    0    5
         3     5       1    7   10    0
         4     9       1    6    0    4
 11      1     3       8    7    0    9
         2     9       8    6    3    0
         3    10       7    3    0    9
         4    10       7    2    3    0
 12      1     6       7    7    0    7
         2     8       6    4    0    4
         3     8       5    5    0    4
         4     9       4    2    0    3
 13      1     5       7    9    6    0
         2     6       4    8    5    0
         3     8       4    5    5    0
         4     8       3    5    0    6
 14      1     5       6    7    5    0
         2     5       5    7    6    0
         3     8       4    6    0    7
         4    10       3    6    3    0
 15      1     1       8    7    9    0
         2     5       7    6    0    7
         3     8       5    4    7    0
         4    10       4    1    5    0
 16      1     2       8    6    8    0
         2     2       8    5    9    0
         3     3       8    5    0    5
         4    10       8    4    0    4
 17      1     5       8    8    0    6
         2     5       8    8    6    0
         3     8       7    5    0    6
         4     8       7    3    3    0
 18      1     0       0    0    0    0
************************************************************************
RESOURCEAVAILABILITIES:
  R 1  R 2  N 1  N 2
   26   25   69   77
************************************************************************
